<?xml version="1.0" encoding="UTF-8"?><osil xmlns="os.optimizationservices.org"   xmlns:xsi="http://www.w3.org/2001/XMLSchema-instance" xsi:schemaLocation="os.optimizationservices.org http://www.optimizationservices.org/schemas/2.0/OSiL.xsd" ><instanceHeader><name>q_30_0_50_1</name></instanceHeader><instanceData><variables numberOfVariables="30"><var name="x1" ub="1"/><var name="x2" ub="1"/><var name="x3" ub="1"/><var name="x4" ub="1"/><var name="x5" ub="1"/><var name="x6" ub="1"/><var name="x7" ub="1"/><var name="x8" ub="1"/><var name="x9" ub="1"/><var name="x10" ub="1"/><var name="x11" ub="1"/><var name="x12" ub="1"/><var name="x13" ub="1"/><var name="x14" ub="1"/><var name="x15" ub="1"/><var name="x16" ub="1"/><var name="x17" ub="1"/><var name="x18" ub="1"/><var name="x19" ub="1"/><var name="x20" ub="1"/><var name="x21" ub="1"/><var name="x22" ub="1"/><var name="x23" ub="1"/><var name="x24" ub="1"/><var name="x25" ub="1"/><var name="x26" ub="1"/><var name="x27" ub="1"/><var name="x28" ub="1"/><var name="x29" ub="1"/><var name="x30" ub="1"/></variables><objectives numberOfObjectives="1"><obj maxOrMin="min" name="defObj_x31" numberOfObjCoef="30"><coef idx="0">-.8966</coef><coef idx="1">.2624</coef><coef idx="2">.1377</coef><coef idx="3">-.3901</coef><coef idx="4">-.244</coef><coef idx="5">-8.98e-2</coef><coef idx="6">.7614</coef><coef idx="7">-.7333</coef><coef idx="8">.3803</coef><coef idx="9">.6721</coef><coef idx="10">-.1619</coef><coef idx="11">.8134</coef><coef idx="12">.9525</coef><coef idx="13">.992</coef><coef idx="14">.7007</coef><coef idx="15">.3342</coef><coef idx="16">.7684</coef><coef idx="17">.3835</coef><coef idx="18">-.3171</coef><coef idx="19">-.5577</coef><coef idx="20">.6115</coef><coef idx="21">-.1189</coef><coef idx="22">.8643</coef><coef idx="23">.3953</coef><coef idx="24">-.3491</coef><coef idx="25">-.7712</coef><coef idx="26">-.8291</coef><coef idx="27">-.3737</coef><coef idx="28">.388</coef><coef idx="29">-.5345</coef></obj></objectives><quadraticCoefficients  numberOfQuadraticTerms="232" ><qTerm  idx="-1"  idxOne="0"  idxTwo="7"  coef="-1.9779"/><qTerm  idx="-1"  idxOne="0"  idxTwo="10"  coef="1.3471"/><qTerm  idx="-1"  idxOne="0"  idxTwo="15"  coef="1.0132"/><qTerm  idx="-1"  idxOne="0"  idxTwo="25"  coef="1.8783"/><qTerm  idx="-1"  idxOne="0"  idxTwo="26"  coef="-1.2467"/><qTerm  idx="-1"  idxOne="0"  idxTwo="29"  coef=".3934"/><qTerm  idx="-1"  idxOne="1"  idxTwo="4"  coef="-.4309"/><qTerm  idx="-1"  idxOne="1"  idxTwo="5"  coef="-1.4694"/><qTerm  idx="-1"  idxOne="1"  idxTwo="6"  coef="1.2781"/><qTerm  idx="-1"  idxOne="1"  idxTwo="8"  coef="-5.37e-2"/><qTerm  idx="-1"  idxOne="1"  idxTwo="9"  coef="-.6642"/><qTerm  idx="-1"  idxOne="1"  idxTwo="10"  coef="-.7812"/><qTerm  idx="-1"  idxOne="1"  idxTwo="12"  coef="-.3649"/><qTerm  idx="-1"  idxOne="1"  idxTwo="13"  coef="1.0377"/><qTerm  idx="-1"  idxOne="1"  idxTwo="14"  coef="-.2999"/><qTerm  idx="-1"  idxOne="1"  idxTwo="19"  coef="-1.6863"/><qTerm  idx="-1"  idxOne="1"  idxTwo="20"  coef="1.5037"/><qTerm  idx="-1"  idxOne="1"  idxTwo="22"  coef="1.3042"/><qTerm  idx="-1"  idxOne="1"  idxTwo="23"  coef="1.885"/><qTerm  idx="-1"  idxOne="1"  idxTwo="26"  coef="1.1194"/><qTerm  idx="-1"  idxOne="1"  idxTwo="29"  coef=".6463"/><qTerm  idx="-1"  idxOne="2"  idxTwo="5"  coef="-1.731"/><qTerm  idx="-1"  idxOne="2"  idxTwo="6"  coef="-.7919"/><qTerm  idx="-1"  idxOne="2"  idxTwo="8"  coef="1.6475"/><qTerm  idx="-1"  idxOne="2"  idxTwo="9"  coef="1.4468"/><qTerm  idx="-1"  idxOne="2"  idxTwo="11"  coef="1.9629"/><qTerm  idx="-1"  idxOne="2"  idxTwo="14"  coef="-.129"/><qTerm  idx="-1"  idxOne="2"  idxTwo="18"  coef="1.5311"/><qTerm  idx="-1"  idxOne="2"  idxTwo="19"  coef=".465"/><qTerm  idx="-1"  idxOne="2"  idxTwo="20"  coef="1.5927"/><qTerm  idx="-1"  idxOne="2"  idxTwo="22"  coef="-.6914"/><qTerm  idx="-1"  idxOne="2"  idxTwo="24"  coef=".2133"/><qTerm  idx="-1"  idxOne="2"  idxTwo="25"  coef="-4.22e-2"/><qTerm  idx="-1"  idxOne="2"  idxTwo="27"  coef="-1.5402"/><qTerm  idx="-1"  idxOne="2"  idxTwo="28"  coef="1.3215"/><qTerm  idx="-1"  idxOne="3"  idxTwo="3"  coef=".9525"/><qTerm  idx="-1"  idxOne="3"  idxTwo="4"  coef="-.5181"/><qTerm  idx="-1"  idxOne="3"  idxTwo="6"  coef="1.3916"/><qTerm  idx="-1"  idxOne="3"  idxTwo="8"  coef=".8303"/><qTerm  idx="-1"  idxOne="3"  idxTwo="9"  coef="-1.7455"/><qTerm  idx="-1"  idxOne="3"  idxTwo="13"  coef=".6215"/><qTerm  idx="-1"  idxOne="3"  idxTwo="16"  coef="1.9682"/><qTerm  idx="-1"  idxOne="3"  idxTwo="17"  coef=".3384"/><qTerm  idx="-1"  idxOne="3"  idxTwo="19"  coef="1.7284"/><qTerm  idx="-1"  idxOne="3"  idxTwo="20"  coef="1.3957"/><qTerm  idx="-1"  idxOne="3"  idxTwo="24"  coef="1.3073"/><qTerm  idx="-1"  idxOne="3"  idxTwo="25"  coef=".7149"/><qTerm  idx="-1"  idxOne="3"  idxTwo="26"  coef="1.5146"/><qTerm  idx="-1"  idxOne="3"  idxTwo="27"  coef="-.5951"/><qTerm  idx="-1"  idxOne="3"  idxTwo="28"  coef="-.9217"/><qTerm  idx="-1"  idxOne="4"  idxTwo="5"  coef="1.006"/><qTerm  idx="-1"  idxOne="4"  idxTwo="6"  coef="1.1565"/><qTerm  idx="-1"  idxOne="4"  idxTwo="8"  coef=".7769"/><qTerm  idx="-1"  idxOne="4"  idxTwo="11"  coef=".3047"/><qTerm  idx="-1"  idxOne="4"  idxTwo="13"  coef="1.8408"/><qTerm  idx="-1"  idxOne="4"  idxTwo="15"  coef="-.7442"/><qTerm  idx="-1"  idxOne="4"  idxTwo="19"  coef="-.7355"/><qTerm  idx="-1"  idxOne="4"  idxTwo="20"  coef="1.5365"/><qTerm  idx="-1"  idxOne="4"  idxTwo="24"  coef="1.884"/><qTerm  idx="-1"  idxOne="4"  idxTwo="25"  coef=".4055"/><qTerm  idx="-1"  idxOne="4"  idxTwo="26"  coef="1.975"/><qTerm  idx="-1"  idxOne="4"  idxTwo="27"  coef="1.4513"/><qTerm  idx="-1"  idxOne="4"  idxTwo="28"  coef="-.5006"/><qTerm  idx="-1"  idxOne="5"  idxTwo="5"  coef=".1476"/><qTerm  idx="-1"  idxOne="5"  idxTwo="6"  coef="1.2855"/><qTerm  idx="-1"  idxOne="5"  idxTwo="7"  coef="1.3816"/><qTerm  idx="-1"  idxOne="5"  idxTwo="10"  coef="-1.151"/><qTerm  idx="-1"  idxOne="5"  idxTwo="11"  coef=".5522"/><qTerm  idx="-1"  idxOne="5"  idxTwo="12"  coef="-8.02e-2"/><qTerm  idx="-1"  idxOne="5"  idxTwo="13"  coef="-1.0346"/><qTerm  idx="-1"  idxOne="5"  idxTwo="14"  coef=".8699"/><qTerm  idx="-1"  idxOne="5"  idxTwo="17"  coef=".8584"/><qTerm  idx="-1"  idxOne="5"  idxTwo="19"  coef=".5992"/><qTerm  idx="-1"  idxOne="5"  idxTwo="21"  coef="-1.4179"/><qTerm  idx="-1"  idxOne="5"  idxTwo="23"  coef="-.717"/><qTerm  idx="-1"  idxOne="5"  idxTwo="27"  coef="-1.5269"/><qTerm  idx="-1"  idxOne="5"  idxTwo="28"  coef=".5638"/><qTerm  idx="-1"  idxOne="6"  idxTwo="6"  coef="-1.3249"/><qTerm  idx="-1"  idxOne="6"  idxTwo="7"  coef="-1.9925"/><qTerm  idx="-1"  idxOne="6"  idxTwo="10"  coef=".9773"/><qTerm  idx="-1"  idxOne="6"  idxTwo="12"  coef="1.6681"/><qTerm  idx="-1"  idxOne="6"  idxTwo="13"  coef="1.7205"/><qTerm  idx="-1"  idxOne="6"  idxTwo="14"  coef="-.54"/><qTerm  idx="-1"  idxOne="6"  idxTwo="15"  coef=".6826"/><qTerm  idx="-1"  idxOne="6"  idxTwo="16"  coef="1.7544"/><qTerm  idx="-1"  idxOne="6"  idxTwo="17"  coef="-.9346"/><qTerm  idx="-1"  idxOne="6"  idxTwo="19"  coef=".1548"/><qTerm  idx="-1"  idxOne="6"  idxTwo="20"  coef=".3532"/><qTerm  idx="-1"  idxOne="6"  idxTwo="23"  coef="1.062"/><qTerm  idx="-1"  idxOne="6"  idxTwo="27"  coef=".4699"/><qTerm  idx="-1"  idxOne="6"  idxTwo="28"  coef="-4.28e-2"/><qTerm  idx="-1"  idxOne="7"  idxTwo="7"  coef="1.6844"/><qTerm  idx="-1"  idxOne="7"  idxTwo="10"  coef="1.5197"/><qTerm  idx="-1"  idxOne="7"  idxTwo="13"  coef="-1.3356"/><qTerm  idx="-1"  idxOne="7"  idxTwo="15"  coef="1.538"/><qTerm  idx="-1"  idxOne="7"  idxTwo="16"  coef=".463"/><qTerm  idx="-1"  idxOne="7"  idxTwo="17"  coef=".45"/><qTerm  idx="-1"  idxOne="7"  idxTwo="18"  coef="-.8968"/><qTerm  idx="-1"  idxOne="7"  idxTwo="19"  coef="-5.51e-2"/><qTerm  idx="-1"  idxOne="7"  idxTwo="20"  coef="1.4585"/><qTerm  idx="-1"  idxOne="7"  idxTwo="21"  coef="-1.939"/><qTerm  idx="-1"  idxOne="7"  idxTwo="23"  coef="3.1e-3"/><qTerm  idx="-1"  idxOne="7"  idxTwo="24"  coef="-.8535"/><qTerm  idx="-1"  idxOne="7"  idxTwo="26"  coef="-.6659"/><qTerm  idx="-1"  idxOne="8"  idxTwo="13"  coef=".6413"/><qTerm  idx="-1"  idxOne="8"  idxTwo="15"  coef="-.7476"/><qTerm  idx="-1"  idxOne="8"  idxTwo="18"  coef="1.0648"/><qTerm  idx="-1"  idxOne="8"  idxTwo="19"  coef="-6.e-2"/><qTerm  idx="-1"  idxOne="8"  idxTwo="20"  coef="-.9873"/><qTerm  idx="-1"  idxOne="8"  idxTwo="22"  coef="1.3982"/><qTerm  idx="-1"  idxOne="8"  idxTwo="24"  coef=".931"/><qTerm  idx="-1"  idxOne="8"  idxTwo="26"  coef="-1.6818"/><qTerm  idx="-1"  idxOne="8"  idxTwo="29"  coef="1.3622"/><qTerm  idx="-1"  idxOne="9"  idxTwo="10"  coef="-1.8159"/><qTerm  idx="-1"  idxOne="9"  idxTwo="12"  coef=".9141"/><qTerm  idx="-1"  idxOne="9"  idxTwo="13"  coef="-1.96"/><qTerm  idx="-1"  idxOne="9"  idxTwo="14"  coef="-1.5598"/><qTerm  idx="-1"  idxOne="9"  idxTwo="17"  coef=".8247"/><qTerm  idx="-1"  idxOne="9"  idxTwo="18"  coef="1.1193"/><qTerm  idx="-1"  idxOne="9"  idxTwo="20"  coef=".2375"/><qTerm  idx="-1"  idxOne="9"  idxTwo="21"  coef="-1.2294"/><qTerm  idx="-1"  idxOne="9"  idxTwo="23"  coef="-5.41e-2"/><qTerm  idx="-1"  idxOne="9"  idxTwo="26"  coef="-1.5208"/><qTerm  idx="-1"  idxOne="9"  idxTwo="27"  coef=".6758"/><qTerm  idx="-1"  idxOne="9"  idxTwo="28"  coef=".769"/><qTerm  idx="-1"  idxOne="9"  idxTwo="29"  coef="-3.28e-2"/><qTerm  idx="-1"  idxOne="10"  idxTwo="11"  coef=".9589"/><qTerm  idx="-1"  idxOne="10"  idxTwo="13"  coef=".6388"/><qTerm  idx="-1"  idxOne="10"  idxTwo="14"  coef="-.6705"/><qTerm  idx="-1"  idxOne="10"  idxTwo="15"  coef="-.4603"/><qTerm  idx="-1"  idxOne="10"  idxTwo="16"  coef="-1.897"/><qTerm  idx="-1"  idxOne="10"  idxTwo="18"  coef=".4724"/><qTerm  idx="-1"  idxOne="10"  idxTwo="19"  coef="-1.7118"/><qTerm  idx="-1"  idxOne="10"  idxTwo="20"  coef=".1959"/><qTerm  idx="-1"  idxOne="10"  idxTwo="24"  coef="1.8247"/><qTerm  idx="-1"  idxOne="10"  idxTwo="26"  coef=".6296"/><qTerm  idx="-1"  idxOne="11"  idxTwo="12"  coef="1.8058"/><qTerm  idx="-1"  idxOne="11"  idxTwo="13"  coef=".6602"/><qTerm  idx="-1"  idxOne="11"  idxTwo="14"  coef="1.7245"/><qTerm  idx="-1"  idxOne="11"  idxTwo="15"  coef="1.4986"/><qTerm  idx="-1"  idxOne="11"  idxTwo="17"  coef="1.0563"/><qTerm  idx="-1"  idxOne="11"  idxTwo="18"  coef=".4572"/><qTerm  idx="-1"  idxOne="11"  idxTwo="19"  coef="-1.6231"/><qTerm  idx="-1"  idxOne="11"  idxTwo="21"  coef=".8082"/><qTerm  idx="-1"  idxOne="11"  idxTwo="22"  coef=".932"/><qTerm  idx="-1"  idxOne="11"  idxTwo="23"  coef="-1.4734"/><qTerm  idx="-1"  idxOne="11"  idxTwo="24"  coef="-1.9113"/><qTerm  idx="-1"  idxOne="11"  idxTwo="26"  coef="-.743"/><qTerm  idx="-1"  idxOne="11"  idxTwo="27"  coef="-.6476"/><qTerm  idx="-1"  idxOne="11"  idxTwo="29"  coef=".1015"/><qTerm  idx="-1"  idxOne="12"  idxTwo="14"  coef="-.3114"/><qTerm  idx="-1"  idxOne="12"  idxTwo="16"  coef="-.9231"/><qTerm  idx="-1"  idxOne="12"  idxTwo="18"  coef=".5877"/><qTerm  idx="-1"  idxOne="12"  idxTwo="20"  coef=".632"/><qTerm  idx="-1"  idxOne="12"  idxTwo="21"  coef="-.3931"/><qTerm  idx="-1"  idxOne="12"  idxTwo="23"  coef=".118"/><qTerm  idx="-1"  idxOne="12"  idxTwo="24"  coef=".3119"/><qTerm  idx="-1"  idxOne="12"  idxTwo="25"  coef="1.5872"/><qTerm  idx="-1"  idxOne="12"  idxTwo="27"  coef="-1.6963"/><qTerm  idx="-1"  idxOne="12"  idxTwo="28"  coef="1.9881"/><qTerm  idx="-1"  idxOne="12"  idxTwo="29"  coef="-1.3494"/><qTerm  idx="-1"  idxOne="13"  idxTwo="17"  coef=".9939"/><qTerm  idx="-1"  idxOne="13"  idxTwo="20"  coef=".6186"/><qTerm  idx="-1"  idxOne="13"  idxTwo="22"  coef=".5772"/><qTerm  idx="-1"  idxOne="13"  idxTwo="24"  coef="-.3495"/><qTerm  idx="-1"  idxOne="13"  idxTwo="25"  coef=".7869"/><qTerm  idx="-1"  idxOne="13"  idxTwo="29"  coef=".6252"/><qTerm  idx="-1"  idxOne="14"  idxTwo="15"  coef="-1.9699"/><qTerm  idx="-1"  idxOne="14"  idxTwo="16"  coef="1.2126"/><qTerm  idx="-1"  idxOne="14"  idxTwo="18"  coef="-1.8843"/><qTerm  idx="-1"  idxOne="14"  idxTwo="20"  coef="-1.0471"/><qTerm  idx="-1"  idxOne="14"  idxTwo="21"  coef=".9543"/><qTerm  idx="-1"  idxOne="14"  idxTwo="22"  coef="-1.5949"/><qTerm  idx="-1"  idxOne="14"  idxTwo="23"  coef="1.56e-2"/><qTerm  idx="-1"  idxOne="14"  idxTwo="25"  coef=".907"/><qTerm  idx="-1"  idxOne="15"  idxTwo="16"  coef="-1.8933"/><qTerm  idx="-1"  idxOne="15"  idxTwo="17"  coef="-.6635"/><qTerm  idx="-1"  idxOne="15"  idxTwo="20"  coef="-.3421"/><qTerm  idx="-1"  idxOne="15"  idxTwo="22"  coef=".1004"/><qTerm  idx="-1"  idxOne="15"  idxTwo="23"  coef="1.7025"/><qTerm  idx="-1"  idxOne="15"  idxTwo="26"  coef="-1.7401"/><qTerm  idx="-1"  idxOne="15"  idxTwo="27"  coef="-.4514"/><qTerm  idx="-1"  idxOne="15"  idxTwo="28"  coef="-.7753"/><qTerm  idx="-1"  idxOne="16"  idxTwo="16"  coef=".753"/><qTerm  idx="-1"  idxOne="16"  idxTwo="17"  coef="1.6073"/><qTerm  idx="-1"  idxOne="16"  idxTwo="18"  coef="-.8292"/><qTerm  idx="-1"  idxOne="16"  idxTwo="19"  coef="-1.2781"/><qTerm  idx="-1"  idxOne="16"  idxTwo="20"  coef="-1.4234"/><qTerm  idx="-1"  idxOne="16"  idxTwo="21"  coef="-.3904"/><qTerm  idx="-1"  idxOne="16"  idxTwo="24"  coef=".6705"/><qTerm  idx="-1"  idxOne="16"  idxTwo="25"  coef=".3039"/><qTerm  idx="-1"  idxOne="17"  idxTwo="17"  coef=".7252"/><qTerm  idx="-1"  idxOne="17"  idxTwo="19"  coef=".8148"/><qTerm  idx="-1"  idxOne="17"  idxTwo="20"  coef=".4016"/><qTerm  idx="-1"  idxOne="17"  idxTwo="21"  coef=".2806"/><qTerm  idx="-1"  idxOne="17"  idxTwo="22"  coef="-1.4186"/><qTerm  idx="-1"  idxOne="17"  idxTwo="26"  coef="3.82e-2"/><qTerm  idx="-1"  idxOne="17"  idxTwo="28"  coef="-.6199"/><qTerm  idx="-1"  idxOne="18"  idxTwo="19"  coef="-1.7506"/><qTerm  idx="-1"  idxOne="18"  idxTwo="20"  coef="1.2876"/><qTerm  idx="-1"  idxOne="18"  idxTwo="21"  coef="-1.0215"/><qTerm  idx="-1"  idxOne="18"  idxTwo="27"  coef="-.6883"/><qTerm  idx="-1"  idxOne="18"  idxTwo="29"  coef="-1.1253"/><qTerm  idx="-1"  idxOne="19"  idxTwo="19"  coef="9.62e-2"/><qTerm  idx="-1"  idxOne="19"  idxTwo="20"  coef=".6547"/><qTerm  idx="-1"  idxOne="19"  idxTwo="22"  coef="1.3636"/><qTerm  idx="-1"  idxOne="19"  idxTwo="24"  coef="-1.3158"/><qTerm  idx="-1"  idxOne="19"  idxTwo="27"  coef="-.4633"/><qTerm  idx="-1"  idxOne="19"  idxTwo="28"  coef="-1.4146"/><qTerm  idx="-1"  idxOne="19"  idxTwo="29"  coef="-1.1297"/><qTerm  idx="-1"  idxOne="20"  idxTwo="21"  coef="1.8554"/><qTerm  idx="-1"  idxOne="20"  idxTwo="23"  coef="1.5656"/><qTerm  idx="-1"  idxOne="20"  idxTwo="24"  coef="1.812"/><qTerm  idx="-1"  idxOne="20"  idxTwo="26"  coef="-.6024"/><qTerm  idx="-1"  idxOne="20"  idxTwo="27"  coef="-.7428"/><qTerm  idx="-1"  idxOne="21"  idxTwo="25"  coef="8.6e-3"/><qTerm  idx="-1"  idxOne="21"  idxTwo="28"  coef="-1.6347"/><qTerm  idx="-1"  idxOne="22"  idxTwo="23"  coef=".6997"/><qTerm  idx="-1"  idxOne="22"  idxTwo="26"  coef="-1.5964"/><qTerm  idx="-1"  idxOne="22"  idxTwo="29"  coef=".3473"/><qTerm  idx="-1"  idxOne="23"  idxTwo="23"  coef="-1.0082"/><qTerm  idx="-1"  idxOne="23"  idxTwo="25"  coef="1.3278"/><qTerm  idx="-1"  idxOne="23"  idxTwo="26"  coef="-5.76e-2"/><qTerm  idx="-1"  idxOne="23"  idxTwo="28"  coef="-1.5763"/><qTerm  idx="-1"  idxOne="23"  idxTwo="29"  coef="-.1287"/><qTerm  idx="-1"  idxOne="24"  idxTwo="24"  coef="-.7859"/><qTerm  idx="-1"  idxOne="24"  idxTwo="26"  coef="-.3343"/><qTerm  idx="-1"  idxOne="24"  idxTwo="29"  coef="-.5208"/><qTerm  idx="-1"  idxOne="26"  idxTwo="27"  coef=".2337"/><qTerm  idx="-1"  idxOne="27"  idxTwo="27"  coef=".8444"/><qTerm  idx="-1"  idxOne="27"  idxTwo="28"  coef="-.4805"/><qTerm  idx="-1"  idxOne="29"  idxTwo="29"  coef="-1.4689"/></quadraticCoefficients></instanceData></osil>
